
Gurobi 7.0.2 (mac64, Python) logging started Fri Oct  6 14:13:03 2017


Gurobi 7.0.2 (mac64, Python) logging started Fri Oct  6 14:13:41 2017

Changed value of parameter Threads to 1
   Prev: 0  Min: 0  Max: 1024  Default: 0
Changed value of parameter TimeLimit to 300.0
   Prev: 1e+100  Min: 0.0  Max: 1e+100  Default: 1e+100
Optimize a model with 111961 rows, 108785 columns and 550122 nonzeros
Variable types: 0 continuous, 108785 integer (108785 binary)
Coefficient statistics:
  Matrix range     [1e+00, 2e+01]
  Objective range  [4e-02, 1e+00]
  Bounds range     [1e+00, 1e+00]
  RHS range        [1e+00, 1e+01]
Found heuristic solution: objective 748.992
Presolve removed 6557 rows and 3571 columns
Presolve time: 3.51s
Presolved: 105404 rows, 105214 columns, 522866 nonzeros
Found heuristic solution: objective 654.4343707
Variable types: 0 continuous, 105214 integer (105214 binary)

Root simplex log...

Iteration    Objective       Primal Inf.    Dual Inf.      Time
    2693    2.2856058e+02   4.546078e+04   0.000000e+00      5s
    5987    2.3345671e+02   5.811313e+04   0.000000e+00     10s

Root relaxation: interrupted, 6888 iterations, 7.74 seconds

    Nodes    |    Current Node    |     Objective Bounds      |     Work
 Expl Unexpl |  Obj  Depth IntInf | Incumbent    BestBd   Gap | It/Node Time

     0     0          -    0       654.43437          -      -     -   11s

Explored 0 nodes (6888 simplex iterations) in 11.47 seconds
Thread count was 1 (of 8 available processors)

Solution count 3: 654.434 748.992 751.992 

Solve interrupted
Best objective 6.544343707235e+02, best bound -, gap -
